(set-logic ALL)
(declare-fun i1 () Int)
(declare-fun it373 () Int)
(declare-fun i2 () Int)
(declare-fun it374 () Int)
(declare-fun i3 () Int)
(declare-fun it375 () Int)
(declare-fun i4 () Int)
(declare-fun it376 () Int)
(declare-fun it377 () Int)
(declare-fun i5 () Int)
(declare-fun i6 () Int)
(declare-fun it378 () Int)
(declare-fun it385 () Int)
(declare-fun it386 () Int)
(declare-fun it387 () Int)
(declare-fun it388 () Int)
(declare-fun it389 () Int)
(declare-fun it390 () Int)
(declare-fun it391 () Int)
(declare-fun it392 () Int)
(declare-fun it393 () Int)
(declare-fun it394 () Int)
(declare-fun it395 () Int)
(declare-fun it396 () Int)
(declare-fun it43 () Int)
(declare-fun it399 () Int)
(declare-fun it400 () Int)
(declare-fun it401 () Int)
(declare-fun it402 () Int)
(declare-fun it403 () Int)
(declare-fun it404 () Int)
(declare-fun it409 () Int)
(declare-fun it410 () Int)
(declare-fun it411 () Int)
(declare-fun it412 () Int)
(declare-fun it413 () Int)
(declare-fun it414 () Int)
(declare-fun it420 () Int)
(declare-fun it421 () Int)
(declare-fun it422 () Int)
(declare-fun it423 () Int)
(declare-fun it424 () Int)
(declare-fun it425 () Int)
(declare-fun it430 () Int)
(declare-fun it431 () Int)
(declare-fun it432 () Int)
(declare-fun it433 () Int)
(declare-fun it434 () Int)
(declare-fun it435 () Int)
(declare-fun it444 () Int)
(declare-fun it445 () Int)
(declare-fun it446 () Int)
(declare-fun it447 () Int)
(declare-fun it448 () Int)
(declare-fun it449 () Int)
(declare-fun it452 () Int)
(declare-fun it453 () Int)
(declare-fun it454 () Int)
(declare-fun it455 () Int)
(declare-fun it456 () Int)
(declare-fun it457 () Int)
(declare-fun it460 () Int)
(declare-fun it461 () Int)
(declare-fun it462 () Int)
(declare-fun it463 () Int)
(declare-fun it464 () Int)
(declare-fun it465 () Int)
(declare-fun it474 () Int)
(declare-fun it475 () Int)
(declare-fun it476 () Int)
(declare-fun it477 () Int)
(declare-fun it478 () Int)
(declare-fun it479 () Int)
(assert (= (+ i1 (- 1)) 0))
(assert (= (+ it373 (- 2)) 0))
(assert (= (+ it374 (* i2 (- 1)) (- 1)) 0))
(assert (= (+ it375 (* i3 (- 1))) 0))
(assert (= (+ it376 (* i4 (- 1))) 0))
(assert (= (+ (* i5 (- 1)) it377) 0))
(assert (= (+ it378 (* i6 (- 1))) 0))
(assert (and (= (+ it373 (- 2)) 0) (>= (+ it375 (- 3)) 0)))
(assert (= (+ it385 (- 5)) 0))
(assert (= (+ (* it374 (- 1)) it386 (- 2)) 0))
(assert (= (+ it387 (* it375 (- 1))) 0))
(assert (= it388 0))
(assert (= (+ it389 (* it377 (- 1))) 0))
(assert (= (+ it390 (* it378 (- 1))) 0))
(assert (and (>= (+ it387 (* it388 (- 1)) (- 2)) 0) (= (+ it385 (- 5)) 0)))
(assert (= (+ it391 (- 7)) 0))
(assert (= (+ it392 (* it386 (- 1)) (- 2)) 0))
(assert (= (+ (* it387 (- 1)) it393) 0))
(assert (= (+ it394 (* it388 (- 1))) 0))
(assert (= it395 0))
(assert (= (+ (* it390 (- 1)) it396) 0))
(assert (let ((a!1 (>= (+ (+ (* it394 (- 1)) (* it395 (- 2)) it393) (- 3)) 0))
      (a!2 (>= (+ (+ (* it394 (- 1)) (* it395 (- 2)) it393) (- 4)) 0))
      (a!3 (+ (* (exp 2 (+ it43 (- 1))) (+ 0 (- 2)))
              (+ 0 (* it394 (- 1)))
              (* (exp 2 (+ it43 (- 1))) (+ 0 it395) (+ 0 (- 2)))
              (+ 0 it393))))
  (and (>= (+ (* it391 (- 1)) 7) 0)
       a!1
       (>= (+ it391 (- 7)) 0)
       a!2
       (>= (+ a!3 (+ 0 (- 1))) (+ 0 0))
       (>= (+ it43 (- 1)) 0)
       (>= (+ a!3 (+ 0 (- 2))) (+ 0 0)))))
(assert (= (+ (* it391 (- 1)) it399) 0))
(assert (= (+ (* it43 (- 6)) it400 (* it392 (- 1))) 0))
(assert (= (+ it401 (* it393 (- 1))) 0))
(assert (= (+ (* it394 (- 1)) it402) 0))
(assert (= (+ (+ 0 it403)
      (* (exp 2 it43) (+ 0 (- 1)))
      (* (exp 2 it43) (+ 0 it395) (+ 0 (- 1)))
      (+ 0 1))
   (+ 0 0)))
(assert (let ((a!1 (+ (* (exp 2 (+ it43 (- 1))) (+ 0 (- 2)))
              (+ 0 it404)
              (* (exp 2 (+ it43 (- 1))) (+ 0 it395) (+ 0 (- 2)))
              (+ 0 1))))
  (= a!1 (+ 0 0))))
(assert (let ((a!1 (>= (+ (+ it401 (* it402 (- 1))) (- 4)) 0))
      (a!2 (>= (+ (+ it401 (* it402 (- 1))) (- 5)) 0))
      (a!3 (>= (+ (+ it401 (* it402 (- 1))) (- 3)) 0)))
  (and (>= (+ it399 (- 7)) 0)
       (<= (+ (* it403 2) (* it401 (- 2)) (- 1)) 0)
       (>= (+ (* it399 (- 1)) 7) 0)
       (>= (+ (* it403 2) (* it401 (- 1)) it402 2) 0)
       a!1
       a!2
       (>= 2 0)
       (>= 0 0)
       a!3)))
(assert (= (+ (* it399 (- 1)) it409) 0))
(assert (= (+ (* it400 (- 1)) it410 (* it401 (- 9)) (* it402 9) 36) 0))
(assert (= (+ (* it401 (- 1)) it411) 0))
(assert (= (+ (* it401 (- 1)) it412 4) 0))
(assert (= (+ it413 (* it401 (- 1))) 0))
(assert (= (+ it414 (- 1)) 0))
(assert (and (= (+ it409 (- 7)) 0) (>= (+ (* it413 2) (* it411 (- 1)) it412 2) 0)))
(assert (= (+ it420 (- 5)) 0))
(assert (= (+ (* it410 (- 1)) it421 (- 2)) 0))
(assert (= (+ it422 (* it411 (- 1))) 0))
(assert (= (+ it423 (* it412 (- 1)) (- 1)) 0))
(assert (= (+ (* it413 (- 1)) it424) 0))
(assert (= (+ (* it414 (- 1)) it425) 0))
(assert (and (= (+ it420 (- 5)) 0) (>= (+ it422 (* it423 (- 1)) (- 2)) 0)))
(assert (= (+ it430 (- 7)) 0))
(assert (= (+ (* it421 (- 1)) it431 (- 2)) 0))
(assert (= (+ (* it422 (- 1)) it432) 0))
(assert (= (+ (* it423 (- 1)) it433) 0))
(assert (= it434 0))
(assert (= (+ it435 (* it425 (- 1))) 0))
(assert (and (= (+ it430 (- 7)) 0)
     (>= (+ it432 (* it433 (- 1)) (* it434 (- 2)) (- 3)) 0)))
(assert (= (+ it444 (- 8)) 0))
(assert (= (+ it445 (* it431 (- 1)) (- 1)) 0))
(assert (= (+ (* it432 (- 1)) it446) 0))
(assert (= (+ (* it433 (- 1)) it447) 0))
(assert (= (+ it448 (* it434 (- 1))) 0))
(assert (= (+ (* it435 (- 1)) it449) 0))
(assert (and (= (+ it444 (- 8)) 0)
     (= (+ (* it448 (- 2)) it446 (* it447 (- 1)) (- 3)) 0)))
(assert (= (+ it452 (- 13)) 0))
(assert (= (+ (* it445 (- 1)) it453 (- 2)) 0))
(assert (= (+ it454 (* it446 (- 1))) 0))
(assert (= (+ it455 (* it447 (- 1))) 0))
(assert (= (+ (* it448 (- 1)) it456) 0))
(assert (= (+ it457 (* it448 (- 2)) (- 1)) 0))
(assert (= (+ it452 (- 13)) 0))
(assert (= (+ it460 (- 7)) 0))
(assert (= (+ it461 (* it453 (- 1)) (- 2)) 0))
(assert (= (+ (* it454 (- 1)) it462) 0))
(assert (= (+ (* it455 (- 1)) it463) 0))
(assert (= (+ (* it457 (- 1)) it464) 0))
(assert (= (+ (* it457 (- 1)) it465) 0))
(assert (and (= (+ it460 (- 7)) 0) (>= (+ (* it464 2) (* it462 (- 1)) it463 2) 0)))
(assert (= (+ it474 (- 5)) 0))
(assert (= (+ (* it461 (- 1)) it475 (- 2)) 0))
(assert (= (+ it476 (* it462 (- 1))) 0))
(assert (= (+ it477 (* it463 (- 1)) (- 1)) 0))
(assert (= (+ (* it464 (- 1)) it478) 0))
(assert (= (+ it479 (* it465 (- 1))) 0))
(check-sat)
